(set-info :smt-lib-version 2.6)
(set-logic QF_UFLRA)
(set-info :source |
MathSat group

|)
(set-info :category "random")
(set-info :status sat)
(declare-fun x0 () Real)
(declare-fun x1 () Real)
(declare-fun x2 () Real)
(declare-fun x3 () Real)
(declare-fun x4 () Real)
(declare-fun x5 () Real)
(declare-fun x6 () Real)
(declare-fun x7 () Real)
(declare-fun x8 () Real)
(declare-fun x9 () Real)
(declare-fun x10 () Real)
(declare-fun x11 () Real)
(declare-fun x12 () Real)
(declare-fun x13 () Real)
(declare-fun x14 () Real)
(declare-fun x15 () Real)
(declare-fun x16 () Real)
(declare-fun x17 () Real)
(declare-fun x18 () Real)
(declare-fun x19 () Real)
(declare-fun x20 () Real)
(declare-fun x21 () Real)
(declare-fun x22 () Real)
(declare-fun x23 () Real)
(declare-fun x24 () Real)
(declare-fun x25 () Real)
(declare-fun x26 () Real)
(declare-fun x27 () Real)
(declare-fun x28 () Real)
(declare-fun x29 () Real)
(declare-fun x30 () Real)
(declare-fun x31 () Real)
(declare-fun x32 () Real)
(declare-fun x33 () Real)
(declare-fun x34 () Real)
(declare-fun x35 () Real)
(declare-fun x36 () Real)
(declare-fun x37 () Real)
(declare-fun x38 () Real)
(declare-fun x39 () Real)
(declare-fun x40 () Real)
(declare-fun x41 () Real)
(declare-fun x42 () Real)
(declare-fun x43 () Real)
(declare-fun x44 () Real)
(declare-fun x45 () Real)
(declare-fun x46 () Real)
(declare-fun x47 () Real)
(declare-fun x48 () Real)
(declare-fun x49 () Real)
(declare-fun f0_1 (Real) Real)
(declare-fun f0_2 (Real Real) Real)
(declare-fun f0_3 (Real Real Real) Real)
(declare-fun f0_4 (Real Real Real Real) Real)
(declare-fun P0 () Bool)
(declare-fun P1 () Bool)
(declare-fun P2 () Bool)
(declare-fun P3 () Bool)
(declare-fun P4 () Bool)
(declare-fun P5 () Bool)
(declare-fun P6 () Bool)
(declare-fun P7 () Bool)
(declare-fun P8 () Bool)
(declare-fun P9 () Bool)
(declare-fun P10 () Bool)
(declare-fun P11 () Bool)
(declare-fun P12 () Bool)
(declare-fun P13 () Bool)
(declare-fun P14 () Bool)
(declare-fun P15 () Bool)
(declare-fun P16 () Bool)
(declare-fun P17 () Bool)
(declare-fun P18 () Bool)
(declare-fun P19 () Bool)
(declare-fun P20 () Bool)
(declare-fun P21 () Bool)
(declare-fun P22 () Bool)
(declare-fun P23 () Bool)
(declare-fun P24 () Bool)
(declare-fun P25 () Bool)
(declare-fun P26 () Bool)
(declare-fun P27 () Bool)
(declare-fun P28 () Bool)
(declare-fun P29 () Bool)
(declare-fun P30 () Bool)
(declare-fun P31 () Bool)
(declare-fun P32 () Bool)
(declare-fun P33 () Bool)
(declare-fun P34 () Bool)
(declare-fun P35 () Bool)
(declare-fun P36 () Bool)
(declare-fun P37 () Bool)
(declare-fun P38 () Bool)
(declare-fun P39 () Bool)
(declare-fun P40 () Bool)
(declare-fun P41 () Bool)
(declare-fun P42 () Bool)
(declare-fun P43 () Bool)
(declare-fun P44 () Bool)
(declare-fun P45 () Bool)
(declare-fun P46 () Bool)
(declare-fun P47 () Bool)
(declare-fun P48 () Bool)
(declare-fun P49 () Bool)
(assert (let ((?v_93 (* 19 x4)) (?v_98 (* 27 x46))) (let ((?v_136 (<= (- (+ ?v_98 (* 14 x8)) (* 15 x40)) 15)) (?v_135 (distinct (- (- (* 19 x48) (* 11 x37)) (* 6 x2)) 9)) (?v_47 (* 19 x6))) (let ((?v_72 (<= (- (- ?v_47 (* 5 x30)) (* 25 x23)) 26)) (?v_110 (< (- (- (* 27 x17) (* 2 x35)) (* 27 x30)) 6)) (?v_106 (distinct (- (+ (* 4 x44) (* 3 x40)) (* 14 x21)) 11)) (?v_80 (* 5 x28))) (let ((?v_153 (= (- (+ ?v_80 (* 20 x33)) (* 19 x10)) 12)) (?v_79 (* 8 x42)) (?v_6 (* 25 x41))) (let ((?v_201 (< (+ (- (* 24 x43) (* 20 x34)) ?v_6) 10)) (?v_127 (<= (+ (- ?v_6 (* 10 x17)) (* 26 x41)) 23)) (?v_43 (< (- (- (* 25 x35) (* 12 x8)) (* 23 x36)) 1)) (?v_81 (< (+ (- (* 5 x17) (* 10 x7)) (* 26 x38)) 0)) (?v_91 (< (- (+ (* 12 x18) (* 12 x19)) ?v_79) 28)) (?v_180 (distinct (- (- (* 24 x42) (* 9 x12)) (* 2 x16)) 0)) (?v_169 (= (- (- (* 20 x43) (* 20 x35)) (* 23 x31)) 11)) (?v_190 (= (- (- (* 16 x9) (* 8 x35)) ?v_80) 28)) (?v_7 (f0_1 x20))) (let ((?v_26 (distinct ?v_7 x16)) (?v_70 (distinct x23 (f0_2 x43 x22))) (?v_52 (= x38 (f0_2 x12 x30))) (?v_239 (distinct x8 (f0_1 x47))) (?v_85 (distinct (f0_2 x16 x17) x20)) (?v_49 (= (f0_2 x38 x49) (f0_2 x1 x19))) (?v_193 (f0_1 x16))) (let ((?v_256 (distinct x27 ?v_193)) (?v_46 (= (f0_2 x11 x36) (f0_2 x47 x32))) (?v_45 (= (f0_1 x11) x14)) (?v_231 (distinct x16 x24)) (?v_68 (distinct (f0_2 x30 x1) (f0_1 x14))) (?v_148 (distinct (f0_2 x3 x40) (f0_2 x48 x28))) (?v_114 (distinct x13 (f0_2 x12 x34))) (?v_83 (distinct (f0_2 x23 x13) (f0_2 x47 x38))) (?v_233 (= (f0_1 x43) (f0_1 x17))) (?v_134 (distinct x17 (f0_2 x7 x3))) (?v_41 (distinct (f0_1 x26) (f0_1 x28))) (?v_227 (distinct (f0_1 x36) x18)) (?v_42 (= (f0_1 x6) x4)) (?v_123 (= x32 x35)) (?v_102 (distinct x9 (f0_2 x31 x12))) (?v_63 (distinct (f0_1 x32) (f0_2 x17 x37))) (?v_74 (= (f0_2 x38 x12) (f0_1 x40))) (?v_105 (f0_1 x3))) (let ((?v_27 (= ?v_193 ?v_105)) (?v_101 (f0_2 x20 x13))) (let ((?v_96 (= (f0_1 x22) ?v_101)) (?v_1 (f0_1 x41))) (let ((?v_146 (distinct x29 ?v_1)) (?v_31 (f0_1 x23))) (let ((?v_155 (= (f0_1 x38) ?v_31)) (?v_8 (distinct (f0_1 x27) x7)) (?v_16 (= (f0_1 x46) ?v_1)) (?v_181 (distinct x42 (f0_2 x13 x0))) (?v_39 (distinct x9 x49)) (?v_32 (distinct (f0_2 x5 x16) ?v_7)) (?v_178 (= (f0_2 x31 x49) ?v_31)) (?v_75 (distinct x38 (f0_2 x49 x42))) (?v_14 (distinct (f0_2 x35 x8) x35)) (?v_182 (= x16 (f0_2 x39 x39))) (?v_154 (= (f0_2 x19 x12) ?v_105)) (?v_165 (= x14 (f0_1 x30))) (?v_210 (distinct x44 x15)) (?v_65 (= (f0_2 x20 x21) x6)) (?v_89 (distinct (f0_2 x2 x39) ?v_1)) (?v_5 (distinct (f0_1 x29) x21)) (?v_92 (= ?v_7 (f0_2 x9 x32))) (?v_176 (distinct (f0_2 x38 x4) x23)) (?v_13 (distinct x19 x10)) (?v_132 (distinct (f0_2 x30 x22) (f0_2 x48 x21))) (?v_0 (distinct x7 (f0_1 x5))) (?v_162 (= x42 (f0_2 x8 x7))) (?v_170 (distinct (f0_2 x22 x15) ?v_101)) (?v_228 (= (f0_2 x45 x33) (f0_2 x21 x33)))) (let ((?v_67 (not ?v_14)) (?v_241 (not ?v_148)) (?v_17 (not P43)) (?v_69 (not P10)) (?v_15 (not P14)) (?v_23 (not ?v_102)) (?v_124 (not ?v_228)) (?v_2 (not P44)) (?v_225 (not P47)) (?v_22 (not ?v_210)) (?v_82 (not P18)) (?v_30 (not ?v_135)) (?v_11 (not ?v_27)) (?v_94 (not ?v_146)) (?v_25 (not P11)) (?v_51 (not ?v_0)) (?v_9 (not ?v_85)) (?v_86 (not ?v_201)) (?v_100 (not P37)) (?v_103 (not ?v_5)) (?v_156 (not ?v_178)) (?v_232 (not ?v_26)) (?v_244 (not P28)) (?v_111 (not ?v_42)) (?v_104 (not P12)) (?v_59 (not ?v_169)) (?v_58 (not ?v_16)) (?v_35 (not ?v_190)) (?v_234 (not P19)) (?v_214 (not ?v_45)) (?v_87 (not P33)) (?v_55 (not P45)) (?v_56 (not P4)) (?v_250 (not P46)) (?v_99 (not ?v_155)) (?v_189 (not ?v_176)) (?v_113 (not P49)) (?v_186 (not P7)) (?v_109 (not P31)) (?v_107 (not P9)) (?v_125 (not ?v_39)) (?v_254 (not ?v_63)) (?v_188 (not ?v_41)) (?v_200 (not P6)) (?v_179 (not P8)) (?v_175 (not P42)) (?v_50 (not ?v_49)) (?v_139 (not ?v_114)) (?v_78 (not P16)) (?v_191 (not P38)) (?v_164 (not ?v_52)) (?v_143 (not ?v_110)) (?v_57 (not P26)) (?v_194 (not P41)) (?v_177 (not ?v_65)) (?v_73 (not P48)) (?v_112 (not ?v_227)) (?v_119 (not ?v_106)) (?v_202 (not P2)) (?v_172 (not ?v_70)) (?v_226 (not ?v_153)) (?v_196 (not ?v_81)) (?v_121 (not ?v_75)) (?v_140 (not ?v_72)) (?v_129 (not P15)) (?v_218 (not P32)) (?v_171 (not ?v_91)) (?v_253 (not ?v_96)) (?v_108 (not P13)) (?v_117 (not ?v_181)) (?v_138 (not ?v_136)) (?v_197 (not ?v_13)) (?v_141 (not P21)) (?v_159 (not ?v_43)) (?v_251 (not ?v_154)) (?v_142 (not P39)) (?v_199 (not ?v_68)) (?v_158 (not P34)) (?v_144 (not P1)) (?v_203 (not P29)) (?v_216 (not P40)) (?v_128 (not P22)) (?v_173 (not ?v_123)) (?v_209 (not P20)) (?v_130 (not ?v_92)) (?v_145 (not P36)) (?v_211 (not ?v_239)) (?v_167 (not ?v_132)) (?v_168 (not ?v_134)) (?v_236 (not P3)) (?v_198 (not ?v_162)) (?v_152 (not ?v_89)) (?v_157 (not P24)) (?v_252 (not ?v_8)) (?v_205 (not P27)) (?v_237 (not P17)) (?v_206 (not ?v_170)) (?v_243 (not P30)) (?v_184 (not ?v_231)) (?v_240 (not ?v_127)) (?v_213 (not ?v_256)) (?v_208 (not ?v_233)) (?v_238 (not ?v_74)) (?v_219 (not ?v_83)) (?v_217 (not ?v_180)) (?v_247 (not P5)) (?v_229 (not P35)) (?v_259 (not P25)) (?v_245 (not ?v_32)) (?v_249 (not P23)) (?v_258 (not ?v_182)) (?v_76 (< (+ (- 0 ?v_98) (* 4 x15)) 1))) (let ((?v_230 (not ?v_76)) (?v_40 (< (- (- (* 15 x9) x40) ?v_93) 5))) (let ((?v_115 (not ?v_40)) (?v_97 (< (+ x30 (* 3 x35) (* 15 x10)) 28)) (?v_10 (distinct (- (- (* 10 x27) 0) (* 2 x13)) 23)) (?v_20 (distinct (+ (* 4 x45) (* 7 x6)) 23))) (let ((?v_21 (not ?v_20)) (?v_221 (< (+ (* 22 x29) (* 20 x31) (* 22 x6)) 22))) (let ((?v_38 (not ?v_221)) (?v_44 (not ?v_10)) (?v_183 (<= (+ (* 25 x31) (* 4 x25) (* 11 x21)) 29))) (let ((?v_235 (not ?v_183)) (?v_220 (= (+ (- 0 (* 21 x5)) (* 12 x41)) 15))) (let ((?v_118 (not ?v_220)) (?v_260 (not ?v_97)) (?v_204 (<= (- (* 15 x21) (* 8 x10)) 3)) (?v_150 (or ?v_123 ?v_97)) (?v_255 (or ?v_76 ?v_15)) (?v_174 (<= (+ (* 23 x22) (* 20 x38) (* 16 x45)) 16))) (let ((?v_207 (not ?v_174)) (?v_212 (not ?v_204)) (?v_4 (< (- (+ (* (- 21) x32) (* 9 x3)) (* 2 x37)) (- 26))) (?v_90 (< (+ (* (- 16) x19) (* 14 x18) (* 22 x35)) (- 21)))) (let ((?v_3 (not ?v_90)) (?v_12 (<= (+ (- (* (- 5) x16) (* 17 x48)) (* 25 x18)) 3)) (?v_126 (<= (- (- (* 16 x19) (* 6 x10)) (* 21 x46)) (- 27))) (?v_29 (< (- (- (* (- 12) x12) (* 20 x13)) (* 24 x35)) (- 6))) (?v_64 (* (- 1) x6))) (let ((?v_34 (distinct (+ ?v_64 (* 21 x27) (* 14 x49)) (- 20)))) (let ((?v_37 (not ?v_34)) (?v_122 (< (- (+ (* (- 15) x3) (* 25 x19)) (* 25 x4)) (- 23)))) (let ((?v_19 (not ?v_122)) (?v_28 (<= (- (- (* 13 x12) (* 8 x12)) (* 3 x9)) (- 6))) (?v_222 (< (+ (* (- 18) x3) (* 18 x4) (* 14 x32)) 12))) (let ((?v_248 (not ?v_222)) (?v_133 (< (+ (- 0 (* 18 x7)) (* 24 x9)) (- 23)))) (let ((?v_36 (not ?v_133)) (?v_53 (< (- (+ (* (- 14) x33) (* 20 x14)) (* 11 x44)) 5))) (let ((?v_24 (not ?v_53)) (?v_18 (< (- (- (* 10 x18) (* 12 x46)) (* 22 x34)) (- 29)))) (let ((?v_131 (not ?v_18)) (?v_116 (< (- (+ (* (- 14) x0) (* 3 x3)) ?v_79) 12))) (let ((?v_66 (not ?v_116)) (?v_61 (distinct (+ (* (- 13) x30) (* 14 x28) (* 27 x33)) 21)) (?v_95 (<= (+ (* 5 x9) (* 17 x22) (* 6 x23)) (- 10)))) (let ((?v_62 (not ?v_95)) (?v_33 (not ?v_4)) (?v_60 (not ?v_28)) (?v_151 (< (+ (* (- 15) x26) (* 8 x17) (* 27 x1)) (- 22))) (?v_54 (not ?v_29)) (?v_48 (<= (+ (* (- 18) x19) (* 2 x26) (* 27 x5)) 0))) (let ((?v_120 (not ?v_48)) (?v_242 (= (+ (* (- 2) x38) (* 19 x38) (* 13 x19)) (- 29)))) (let ((?v_147 (not ?v_242)) (?v_192 (< (- (+ ?v_47 (* 13 x26)) (* 20 x18)) (- 4)))) (let ((?v_71 (not ?v_192)) (?v_77 (<= (- (+ (* (- 8) x7) (* 15 x35)) (* 23 x3)) 2)) (?v_166 (< (- (- (* (- 16) x15) (* 15 x27)) (* 6 x44)) (- 19)))) (let ((?v_160 (not ?v_166)) (?v_84 (= (- (+ ?v_64 (* 9 x25)) (* 20 x5)) 24))) (let ((?v_137 (not ?v_84)) (?v_161 (not ?v_77)) (?v_88 (not ?v_12)) (?v_261 (< (+ (- (* 5 x23) (* 25 x36)) (* 20 x28)) (- 22)))) (let ((?v_215 (not ?v_261)) (?v_195 (distinct (- (+ ?v_93 (* 18 x9)) (* 23 x16)) (- 1)))) (let ((?v_223 (not ?v_195)) (?v_149 (< (+ (- (* (- 7) x34) (* 22 x4)) (* 11 x22)) 15)) (?v_163 (<= (+ (* 16 x17) (* 11 x40) (* 5 x39)) (- 8))) (?v_257 (not ?v_151))) (let ((?v_187 (not ?v_163)) (?v_185 (not ?v_61)) (?v_224 (not ?v_126)) (?v_246 (not ?v_149))) (and (and (and (and (and (and (and (and (and (and (and (and (and (and (and (and (and (and (and (and (and (and (and (and (and (and (and (and (and (and (and (and (and (and (and (and (and (and (and (and (and (and (and (and (and (and (and (and (and (and (and (and (and (and (and (and (and (and (and (and (and (and (and (and (and (and (and (and (and (and (and (and (and (and (and (and (and (and (and (and (and (and (and (and (and (and (and (and (and (and (and (and (and (and (and (and (and (and (and (and (and (and (and (and (and (and (and (and (and (and (and (and (and (and (and (and (and (and (and (and (and (and (and (and (and (and (and (and (and (and (and (and (and (and (and (and (and (and (and (and (and (and (and (and (and (and (and (and (and (and (and (and (and (and (and (and (and (and (and (and (and (and (and (and (and (and (and (and (and (and (and (and (and (and (and (and (and (and (and (and (and (and (and (and (and (and (and (and (and (and (and (and (and (and (and (and (and (and (and (and (and (and (and (and (and (and (and (and (and (and (and (and (and (and (and (and (and (and (and (and (and (and (and (and (and (and (and (and (and (and (and (and (and (and (and (and (and (and (and (and (and (and (and (and (and (and (and (and (and (and (and (and (and (and (and (and (and (and (and (and (and (and (and (and (and (and (and (and (and (and (and (and (and (and (and (and (and (and (and (and (and (and (and (and (and (and (and (and (and (and (and (and (and (and (and (and (and (and (and (and (and (and (and (and (and (and (and (and (and (and (and (and (and (and (and (and (and (and (and (and (and (and (and (and (and (and (and (and (and (and (and (and (and (and (and (and (and (and (and (and (and (and (and (and (and (and (and (and (and (and (and (and (and (and (and (and (and (and (and (and (and (and (and (and (and (and (and (and (and (and (and (and (and (and (and (and (and (and (and (and (and (and (and (and (and (and (and (and (and (and (and (and (and (and (and (and (and (and (and (and (and (and (and (and (and (and (and (and (and (and (and (and (and (and (and (and (and (and (and (and (and (and (and (and (and (and (and (and (and (and (and (and (and (and (and (and (and (and (and (and (and (and (and (and (and (and (and (and (and (and (and (and (and (and (and (and (and (and (and (and (and (and (and (and (and (and (and (and (and (and (and (and (and (and (and (and (and (and (and (and (and (and (and (and (and (and (and (and (and (and (and (and (and (and (and (and (and (and (and (and (and (and (and (and (and (and (and (and (and (and (and (and (and (and (and (and (and (and (and (and (and (and (and (and (and (and (and (and (and (and (and (and (and (and (and (and (and (and (and (and (and (and (and (and (and (and (and (and (and (and (and (and (and (and (and (and (and (and (and (and (and (and (and (and (and (and (and (and (and (and (and (and (and (and (and (and (and (and (and (and (and (and (and (and (and (and (and (and (and (and (and (and (and (and (and (and (and (and (and (or (or ?v_39 ?v_230) ?v_67) (or (or ?v_5 P21) ?v_8)) (or (or ?v_241 ?v_17) ?v_69)) (or (or ?v_4 P17) P1)) (or (or ?v_15 ?v_46) ?v_23)) (or (or ?v_124 ?v_3) P25)) (or (or ?v_115 P46) P22)) (or (or ?v_97 ?v_12) ?v_126)) (or (or ?v_2 P31) ?v_225)) (or (or ?v_29 P9) P40)) (or (or ?v_22 ?v_82) ?v_83)) (or (or ?v_30 ?v_0) ?v_11)) (or (or ?v_37 ?v_132) P18)) (or (or ?v_165 P47) ?v_19)) (or (or P7 P34) ?v_94)) (or (or P45 ?v_28) ?v_248)) (or (or ?v_25 ?v_51) ?v_9)) (or (or ?v_89 ?v_2) ?v_86)) (or (or ?v_3 ?v_4) P28)) (or (or P8 ?v_32) ?v_100)) (or (or ?v_103 ?v_13) ?v_156)) (or (or ?v_81 ?v_10) P44)) (or (or ?v_127 ?v_70) ?v_232)) (or (or ?v_36 ?v_5) ?v_8)) (or (or ?v_244 P5) ?v_9)) (or (or ?v_52 ?v_24) ?v_21)) (or (or ?v_10 ?v_11) ?v_131)) (or (or ?v_111 ?v_16) ?v_12)) (or (or ?v_49 P16) ?v_13)) (or (or ?v_38 ?v_14) ?v_72)) (or (or P3 ?v_104) ?v_75)) (or (or ?v_3 ?v_66) ?v_41)) (or (or ?v_59 ?v_15) ?v_58)) (or (or ?v_35 ?v_17) ?v_18)) (or (or P1 ?v_19) ?v_20)) (or (or ?v_234 ?v_214) ?v_87)) (or (or ?v_61 ?v_21) ?v_55)) (or (or ?v_96 ?v_14) ?v_56)) (or (or ?v_22 ?v_23) ?v_62)) (or (or P24 ?v_33) ?v_24)) (or (or ?v_20 P10) ?v_25)) (or (or ?v_26 P7) ?v_27)) (or (or ?v_60 ?v_151) ?v_54)) (or (or ?v_30 ?v_250) ?v_120)) (or (or ?v_9 ?v_26) ?v_99)) (or (or ?v_68 ?v_32) ?v_23)) (or (or ?v_189 P8) ?v_33)) (or (or ?v_3 ?v_34) ?v_25)) (or (or P48 ?v_113) P33)) (or (or ?v_35 ?v_5) ?v_65)) (or (or ?v_36 ?v_43) ?v_186)) (or (or ?v_37 ?v_24) ?v_147)) (or (or ?v_0 ?v_109) ?v_107)) (or (or ?v_38 ?v_125) ?v_40)) (or (or ?v_254 P1) ?v_188)) (or (or ?v_200 ?v_42) ?v_179)) (or (or ?v_43 ?v_175) ?v_44)) (or (or P12 ?v_44) ?v_45)) (or (or ?v_46 ?v_71) ?v_48)) (or (or ?v_0 P25) ?v_50)) (or (or ?v_139 ?v_50) ?v_51)) (or (or P31 P24) P7)) (or (or ?v_30 ?v_78) ?v_52)) (or (or ?v_77 ?v_53) ?v_12)) (or (or ?v_54 ?v_55) ?v_191)) (or (or ?v_164 ?v_143) ?v_57)) (or (or ?v_3 ?v_17) ?v_55)) (or (or ?v_194 ?v_56) ?v_57)) (or (or ?v_58 ?v_160) P16)) (or (or ?v_74 ?v_180) ?v_59)) (or (or ?v_59 P6) P17)) (or (or ?v_60 ?v_61) P37)) (or (or P9 ?v_58) ?v_62)) (or (or ?v_63 ?v_137) ?v_177)) (or (or ?v_66 ?v_48) P46)) (or (or ?v_92 P16) ?v_67)) (or (or ?v_65 ?v_44) ?v_24)) (or (or ?v_73 ?v_235) ?v_68)) (or (or ?v_112 ?v_69) ?v_119)) (or (or ?v_202 ?v_172) ?v_49)) (or (or ?v_71 ?v_72) ?v_17)) (or (or ?v_73 ?v_74) ?v_75)) (or (or ?v_45 ?v_76) ?v_161)) (or (or ?v_88 ?v_50) ?v_215)) (or (or ?v_61 ?v_78) ?v_91)) (or (or ?v_9 P9) ?v_226)) (or (or ?v_196 ?v_82) ?v_83)) (or (or ?v_3 ?v_35) ?v_72)) (or (or ?v_84 ?v_85) ?v_40)) (or (or ?v_118 ?v_86) P27)) (or (or ?v_121 ?v_36) ?v_65)) (or (or ?v_15 ?v_140) ?v_87)) (or (or ?v_88 ?v_89) ?v_129)) (or (or ?v_87 ?v_54) P42)) (or (or ?v_76 P43) P14)) (or (or P46 ?v_55) ?v_83)) (or (or ?v_66 ?v_90) ?v_218)) (or (or ?v_171 ?v_92) P19)) (or (or ?v_223 ?v_94) P4)) (or (or ?v_95 ?v_253) ?v_260)) (or (or ?v_86 ?v_108) ?v_117)) (or (or ?v_138 P15) P43)) (or (or P1 ?v_99) P26)) (or (or ?v_90 ?v_100) P5)) (or (or P46 ?v_170) ?v_23)) (or (or ?v_197 ?v_102) ?v_141)) (or (or ?v_75 ?v_103) ?v_104)) (or (or P13 P10) ?v_149)) (or (or ?v_159 ?v_103) ?v_22)) (or (or ?v_27 ?v_251) ?v_106)) (or (or ?v_142 ?v_107) ?v_108)) (or (or ?v_40 ?v_30) ?v_109)) (or (or ?v_110 ?v_111) ?v_199)) (or (or ?v_48 ?v_112) ?v_54)) (or (or ?v_15 ?v_113) ?v_114)) (or (or ?v_158 ?v_115) ?v_144)) (or (or P42 ?v_203) P8)) (or (or ?v_116 ?v_73) ?v_216)) (or (or ?v_117 ?v_118) ?v_204)) (or (or ?v_26 ?v_10) ?v_119)) (or ?v_150 ?v_120)) (or (or ?v_78 ?v_78) ?v_76)) (or (or ?v_121 ?v_128) ?v_122)) (or (or ?v_173 P40) ?v_124)) (or (or ?v_123 ?v_209) P21)) (or (or ?v_130 ?v_125) ?v_30)) (or (or P22 ?v_126) ?v_69)) (or (or P21 ?v_125) ?v_43)) (or (or P31 ?v_127) ?v_128)) (or (or ?v_145 P21) ?v_2)) (or (or ?v_60 ?v_129) ?v_130)) (or (or ?v_32 P10) ?v_211)) (or (or ?v_134 ?v_131) ?v_68)) (or (or P21 ?v_167) ?v_74)) (or (or ?v_37 ?v_72) ?v_5)) (or (or ?v_133 ?v_168) ?v_135)) (or (or ?v_236 P11) ?v_39)) (or (or ?v_87 ?v_89) ?v_16)) (or (or ?v_136 ?v_131) ?v_5)) (or (or ?v_198 ?v_137) ?v_152)) (or (or ?v_138 ?v_139) ?v_163)) (or (or ?v_133 ?v_25) P2)) (or (or ?v_60 ?v_107) ?v_140)) (or (or ?v_141 ?v_129) ?v_91)) (or (or ?v_13 ?v_142) ?v_82)) (or (or ?v_74 ?v_10) ?v_143)) (or (or P10 ?v_144) ?v_116)) (or ?v_255 P5)) (or (or ?v_107 ?v_145) P48)) (or (or P16 P25) ?v_146)) (or (or ?v_104 ?v_147) ?v_148)) (or (or ?v_28 ?v_9) ?v_174)) (or (or ?v_149 ?v_75) ?v_29)) (or ?v_150 ?v_85)) (or (or ?v_257 ?v_152) ?v_153)) (or (or P41 P15) ?v_71)) (or (or P46 ?v_154) ?v_155)) (or (or ?v_156 P3) ?v_19)) (or (or ?v_17 ?v_117) ?v_42)) (or (or ?v_157 ?v_84) ?v_70)) (or (or ?v_107 ?v_157) ?v_76)) (or (or ?v_158 ?v_34) ?v_131)) (or (or ?v_4 P7) ?v_159)) (or (or P24 ?v_94) ?v_160)) (or (or ?v_30 ?v_52) ?v_120)) (or (or ?v_75 P47) ?v_89)) (or (or ?v_74 ?v_63) ?v_134)) (or (or ?v_103 ?v_62) ?v_30)) (or (or P19 P22) ?v_161)) (or (or ?v_43 ?v_252) P14)) (or (or ?v_34 ?v_118) P3)) (or (or ?v_34 P18) ?v_162)) (or (or ?v_29 ?v_35) ?v_107)) (or (or ?v_5 ?v_163) ?v_102)) (or (or ?v_164 ?v_115) ?v_124)) (or (or P45 ?v_165) ?v_166)) (or (or P29 ?v_146) ?v_205)) (or (or ?v_187 ?v_34) ?v_167)) (or (or P8 ?v_168) ?v_125)) (or (or P40 ?v_237) ?v_11)) (or (or ?v_169 P21) ?v_76)) (or (or ?v_63 ?v_206) ?v_147)) (or (or ?v_171 ?v_172) P0)) (or (or ?v_146 ?v_182) ?v_114)) (or (or ?v_173 ?v_174) P4)) (or (or ?v_133 ?v_109) ?v_175)) (or (or ?v_133 ?v_176) ?v_177)) (or (or ?v_185 ?v_172) P25)) (or (or ?v_70 ?v_117) ?v_110)) (or (or ?v_63 P38) P11)) (or (or ?v_178 P28) ?v_15)) (or (or ?v_126 ?v_21) ?v_114)) (or (or P26 P39) ?v_40)) (or (or ?v_169 ?v_58) ?v_164)) (or (or ?v_179 ?v_16) ?v_44)) (or (or ?v_129 ?v_124) ?v_243)) (or (or ?v_164 ?v_158) ?v_175)) (or (or ?v_57 ?v_207) P0)) (or (or ?v_184 ?v_180) ?v_86)) (or (or ?v_181 P5) ?v_134)) (or (or ?v_58 ?v_182) ?v_240)) (or (or ?v_183 ?v_183) ?v_92)) (or (or ?v_48 ?v_113) P2)) (or (or ?v_151 ?v_135) ?v_28)) (or (or ?v_59 P38) ?v_154)) (or (or ?v_184 ?v_185) ?v_186)) (or (or P9 P14) ?v_187)) (or (or P6 ?v_149) ?v_188)) (or (or ?v_27 ?v_189) ?v_133)) (or (or ?v_75 ?v_190) P2)) (or (or ?v_191 ?v_192) ?v_75)) (or (or ?v_88 ?v_131) ?v_213)) (or (or P12 ?v_40) P13)) (or (or ?v_137 P48) ?v_36)) (or (or P28 ?v_192) P47)) (or (or ?v_107 ?v_194) ?v_3)) (or (or P36 ?v_146) ?v_189)) (or (or ?v_195 ?v_25) ?v_62)) (or (or ?v_106 P6) ?v_178)) (or (or ?v_35 ?v_196) P39)) (or (or ?v_116 P48) ?v_208)) (or (or ?v_197 ?v_198) ?v_81)) (or (or ?v_238 ?v_72) ?v_50)) (or (or P10 ?v_199) ?v_158)) (or (or ?v_99 ?v_200) ?v_117)) (or (or ?v_201 P36) ?v_141)) (or (or ?v_164 ?v_219) ?v_168)) (or (or ?v_167 ?v_41) P13)) (or (or ?v_217 ?v_112) ?v_135)) (or (or ?v_148 ?v_184) ?v_132)) (or (or ?v_131 ?v_40) ?v_176)) (or (or P30 ?v_39) ?v_202)) (or (or ?v_185 ?v_203) ?v_36)) (or (or ?v_198 ?v_196) ?v_106)) (or (or ?v_103 P43) ?v_33)) (or (or ?v_21 ?v_151) P10)) (or (or ?v_198 ?v_156) ?v_77)) (or (or P8 P49) ?v_247)) (or (or ?v_83 P19) ?v_212)) (or (or ?v_205 P14) P35)) (or (or ?v_99 ?v_189) ?v_127)) (or (or ?v_206 ?v_207) P14)) (or (or ?v_13 ?v_175) ?v_176)) (or (or ?v_106 ?v_208) P30)) (or (or ?v_41 ?v_52) ?v_85)) (or (or ?v_115 ?v_140) P39)) (or (or ?v_14 ?v_35) ?v_129)) (or (or ?v_97 P46) ?v_209)) (or (or ?v_100 P15) ?v_58)) (or (or ?v_210 ?v_125) P34)) (or (or P45 ?v_229) ?v_211)) (or (or ?v_212 ?v_17) P27)) (or (or ?v_165 ?v_36) P20)) (or (or ?v_184 ?v_134) ?v_192)) (or (or ?v_163 P3) ?v_45)) (or (or ?v_81 ?v_151) ?v_213)) (or (or ?v_113 ?v_54) ?v_43)) (or (or ?v_129 ?v_203) ?v_114)) (or (or ?v_259 ?v_11) ?v_214)) (or (or ?v_69 ?v_23) ?v_35)) (or (or ?v_36 ?v_73) P14)) (or (or ?v_215 ?v_175) P15)) (or (or ?v_123 ?v_184) ?v_216)) (or (or ?v_2 ?v_171) ?v_196)) (or (or P39 P39) ?v_217)) (or (or P16 ?v_218) ?v_202)) (or (or ?v_111 ?v_66) P36)) (or (or ?v_25 P32) ?v_208)) (or (or ?v_12 ?v_224) P4)) (or (or ?v_83 ?v_218) ?v_17)) (or (or ?v_14 ?v_86) ?v_82)) (or (or ?v_219 ?v_121) ?v_96)) (or (or ?v_77 ?v_168) ?v_88)) (or (or ?v_207 ?v_161) P19)) (or (or P41 ?v_57) ?v_220)) (or (or ?v_122 ?v_190) ?v_85)) (or (or ?v_102 ?v_123) ?v_90)) (or (or P21 ?v_172) ?v_11)) (or (or ?v_82 ?v_127) P36)) (or (or P0 ?v_68) ?v_20)) (or (or ?v_221 ?v_4) ?v_71)) (or (or ?v_221 ?v_10) ?v_208)) (or (or P38 ?v_116) ?v_203)) (or (or ?v_30 ?v_30) ?v_217)) (or (or P23 P49) ?v_82)) (or (or ?v_170 ?v_92) ?v_222)) (or (or ?v_184 P47) ?v_129)) (or (or ?v_221 ?v_35) ?v_223)) (or (or ?v_224 ?v_146) ?v_159)) (or (or ?v_191 P18) ?v_122)) (or (or ?v_190 ?v_225) ?v_42)) (or (or ?v_17 ?v_208) ?v_114)) (or (or ?v_171 ?v_213) ?v_224)) (or (or ?v_196 ?v_56) ?v_121)) (or (or P6 ?v_45) P2)) (or (or ?v_189 P47) ?v_114)) (or (or ?v_226 ?v_186) ?v_190)) (or (or ?v_227 ?v_209) ?v_35)) (or (or ?v_48 ?v_228) ?v_43)) (or (or ?v_21 ?v_168) P37)) (or (or ?v_197 ?v_216) ?v_77)) (or (or ?v_103 ?v_175) ?v_166)) (or (or ?v_200 ?v_214) ?v_21)) (or (or ?v_136 ?v_12) ?v_87)) (or (or ?v_191 P49) ?v_206)) (or (or ?v_171 P1) ?v_192)) (or (or P32 ?v_107) ?v_246)) (or (or ?v_190 ?v_143) ?v_229)) (or (or ?v_158 ?v_72) ?v_199)) (or (or ?v_220 ?v_214) ?v_230)) (or (or ?v_170 ?v_203) ?v_231)) (or (or ?v_232 ?v_182) ?v_233)) (or (or ?v_201 ?v_181) ?v_107)) (or (or ?v_181 ?v_213) ?v_207)) (or (or ?v_42 ?v_187) ?v_219)) (or (or ?v_67 ?v_122) ?v_226)) (or (or ?v_178 ?v_35) ?v_234)) (or (or ?v_187 ?v_235) ?v_88)) (or (or ?v_202 ?v_18) ?v_236)) (or (or ?v_178 ?v_126) ?v_205)) (or (or P41 ?v_111) ?v_135)) (or (or ?v_156 ?v_104) P23)) (or (or ?v_163 ?v_49) ?v_91)) (or (or P31 ?v_229) ?v_200)) (or (or P12 P19) ?v_224)) (or (or ?v_234 ?v_227) ?v_159)) (or (or ?v_84 ?v_83) ?v_237)) (or (or ?v_159 ?v_95) P29)) (or (or ?v_48 ?v_50) ?v_106)) (or (or P20 P46) ?v_23)) (or (or ?v_238 ?v_185) ?v_143)) (or (or P9 P4) ?v_20)) (or (or ?v_14 ?v_103) ?v_187)) (or (or ?v_200 P25) P22)) (or (or ?v_88 ?v_204) ?v_162)) (or (or ?v_48 ?v_120) ?v_158)) (or (or ?v_39 P39) ?v_94)) (or (or ?v_173 P6) P1)) (or (or P8 ?v_49) ?v_12)) (or (or ?v_89 P34) ?v_232)) (or (or ?v_142 ?v_84) ?v_122)) (or (or P31 ?v_59) ?v_213)) (or (or ?v_54 ?v_117) ?v_179)) (or (or ?v_9 P15) ?v_164)) (or (or ?v_194 ?v_36) ?v_50)) (or (or ?v_167 ?v_65) ?v_234)) (or (or ?v_56 ?v_41) ?v_87)) (or (or ?v_131 ?v_234) ?v_32)) (or (or ?v_24 P39) ?v_239)) (or (or P13 ?v_236) ?v_54)) (or (or ?v_81 ?v_245) ?v_53)) (or (or P15 ?v_116) P13)) (or (or ?v_33 ?v_168) ?v_157)) (or (or ?v_227 P40) ?v_189)) (or (or ?v_240 P36) ?v_155)) (or (or ?v_132 ?v_54) P18)) (or (or ?v_108 ?v_55) ?v_91)) (or (or ?v_226 ?v_155) ?v_43)) (or (or ?v_134 ?v_180) ?v_167)) (or (or P36 ?v_11) ?v_52)) (or (or P10 ?v_26) ?v_184)) (or (or (not ?v_165) P11) ?v_159)) (or (or ?v_109 ?v_239) ?v_126)) (or (or ?v_217 ?v_135) ?v_176)) (or (or ?v_137 ?v_131) ?v_199)) (or (or P30 ?v_134) ?v_123)) (or (or ?v_16 ?v_191) ?v_17)) (or (or ?v_102 ?v_241) ?v_94)) (or (or ?v_240 P18) P0)) (or (or ?v_67 ?v_133) ?v_72)) (or (or ?v_55 ?v_232) ?v_89)) (or (or ?v_120 ?v_29) P10)) (or (or ?v_190 P15) ?v_139)) (or (or ?v_242 ?v_170) ?v_182)) (or (or ?v_170 ?v_160) P0)) (or (or ?v_219 ?v_65) ?v_243)) (or (or P44 ?v_10) ?v_72)) (or (or ?v_233 ?v_55) ?v_220)) (or (or ?v_237 ?v_171) ?v_178)) (or (or ?v_116 ?v_59) ?v_172)) (or (or ?v_244 ?v_48) ?v_113)) (or (or ?v_66 ?v_127) ?v_245)) (or (or ?v_73 ?v_127) ?v_210)) (or (or ?v_183 ?v_117) ?v_30)) (or (or ?v_58 ?v_83) ?v_139)) (or (or ?v_75 ?v_249) ?v_23)) (or (or P33 ?v_109) ?v_18)) (or (or ?v_54 ?v_53) ?v_203)) (or (or ?v_246 P49) ?v_247)) (or (or ?v_62 ?v_23) ?v_184)) (or (or ?v_248 ?v_90) ?v_103)) (or (or ?v_74 ?v_42) ?v_237)) (or (or ?v_77 ?v_216) P14)) (or (or P18 P35) P19)) (or (or P48 P33) P20)) (or (or ?v_89 ?v_73) ?v_224)) (or (or ?v_96 ?v_258) P31)) (or (or ?v_49 ?v_159) P20)) (or (or ?v_55 ?v_39) ?v_11)) (or (or ?v_40 P1) ?v_83)) (or (or ?v_170 ?v_13) ?v_249)) (or (or ?v_127 ?v_207) ?v_131)) (or (or ?v_3 ?v_161) ?v_0)) (or (or P14 ?v_123) ?v_39)) (or (or ?v_0 ?v_62) P42)) (or (or ?v_51 ?v_14) ?v_235)) (or (or ?v_223 P23) ?v_136)) (or (or P26 ?v_54) P39)) (or (or ?v_95 ?v_205) ?v_177)) (or (or ?v_103 ?v_189) ?v_77)) (or (or ?v_207 ?v_219) ?v_13)) (or (or P13 ?v_244) ?v_214)) (or (or ?v_14 ?v_74) ?v_120)) (or (or ?v_222 ?v_206) P34)) (or (or ?v_183 ?v_138) ?v_151)) (or (or ?v_192 ?v_163) ?v_16)) (or (or ?v_32 ?v_226) P20)) (or (or P14 ?v_14) ?v_53)) (or (or ?v_0 ?v_130) ?v_28)) (or (or ?v_151 ?v_177) ?v_13)) (or (or ?v_146 ?v_45) ?v_241)) (or (or ?v_238 ?v_242) ?v_136)) (or (or ?v_40 ?v_123) ?v_11)) (or (or ?v_201 P4) ?v_215)) (or (or ?v_229 ?v_120) ?v_207)) (or (or ?v_138 ?v_111) ?v_37)) (or (or ?v_81 P7) P9)) (or (or ?v_99 ?v_70) ?v_114)) (or (or ?v_113 ?v_203) ?v_187)) (or (or ?v_217 ?v_92) ?v_51)) (or (or ?v_125 ?v_154) ?v_142)) (or (or ?v_76 P11) ?v_242)) (or (or ?v_199 ?v_14) ?v_180)) (or (or ?v_250 ?v_201) ?v_43)) (or (or P5 ?v_251) ?v_23)) (or (or ?v_131 ?v_15) ?v_65)) (or (or P15 ?v_162) ?v_88)) (or (or P18 ?v_13) ?v_123)) (or (or ?v_204 ?v_112) P4)) (or (or ?v_65 ?v_33) ?v_100)) (or (or ?v_10 ?v_223) P7)) (or (or ?v_215 ?v_152) ?v_143)) (or (or ?v_46 ?v_178) ?v_210)) (or (or ?v_10 ?v_167) ?v_248)) (or (or ?v_204 ?v_52) ?v_252)) (or (or ?v_219 P42) ?v_46)) (or (or ?v_115 ?v_100) ?v_103)) (or (or ?v_0 ?v_253) P10)) (or (or ?v_99 ?v_27) ?v_254)) (or (or ?v_185 ?v_45) ?v_4)) (or (or ?v_175 ?v_198) ?v_138)) (or (or ?v_151 ?v_124) P20)) (or (or ?v_69 ?v_253) ?v_247)) (or ?v_255 ?v_245)) (or (or ?v_0 ?v_168) P42)) (or (or ?v_91 ?v_173) ?v_78)) (or (or ?v_32 ?v_135) ?v_199)) (or (or ?v_151 ?v_227) P15)) (or (or ?v_245 ?v_144) ?v_182)) (or (or ?v_36 ?v_104) ?v_230)) (or (or ?v_181 ?v_104) ?v_22)) (or (or ?v_35 ?v_220) ?v_256)) (or (or ?v_113 ?v_72) ?v_247)) (or (or P8 ?v_4) ?v_183)) (or (or ?v_247 ?v_219) ?v_120)) (or (or (not ?v_46) ?v_138) P22)) (or (or ?v_2 ?v_74) ?v_249)) (or (or ?v_99 ?v_167) ?v_142)) (or (or ?v_194 ?v_71) ?v_134)) (or (or ?v_45 ?v_28) ?v_70)) (or (or P27 ?v_117) ?v_50)) (or (or ?v_126 ?v_58) ?v_239)) (or (or ?v_244 ?v_187) ?v_65)) (or (or ?v_85 ?v_243) ?v_81)) (or (or ?v_168 ?v_68) P39)) (or (or ?v_220 ?v_257) ?v_83)) (or (or ?v_138 P35) ?v_171)) (or (or P41 ?v_172) ?v_190)) (or (or ?v_89 ?v_209) ?v_92)) (or (or ?v_244 ?v_247) ?v_250)) (or (or ?v_58 ?v_4) ?v_216)) (or (or P3 ?v_238) P14)) (or (or ?v_179 ?v_217) ?v_165)) (or (or ?v_229 ?v_30) ?v_203)) (or (or ?v_199 ?v_194) ?v_99)) (or (or ?v_70 ?v_223) ?v_139)) (or (or P6 ?v_68) ?v_154)) (or (or ?v_106 P26) ?v_148)) (or (or ?v_188 ?v_200) ?v_4)) (or (or ?v_126 ?v_258) ?v_39)) (or (or ?v_17 ?v_52) ?v_249)) (or (or ?v_123 ?v_205) P29)) (or (or ?v_33 ?v_211) ?v_117)) (or (or ?v_235 ?v_249) ?v_87)) (or (or P30 ?v_157) ?v_146)) (or (or ?v_146 ?v_146) ?v_39)) (or (or ?v_23 ?v_155) P28)) (or (or ?v_237 ?v_128) ?v_111)) (or (or ?v_195 ?v_66) ?v_190)) (or (or ?v_177 ?v_242) ?v_134)) (or (or ?v_88 ?v_158) P6)) (or (or ?v_117 ?v_45) P10)) (or (or ?v_28 ?v_206) ?v_222)) (or (or ?v_130 ?v_183) ?v_2)) (or (or ?v_37 ?v_218) ?v_152)) (or (or P23 ?v_259) P32)) (or (or ?v_36 ?v_91) P7)) (or (or ?v_260 ?v_207) ?v_85)) (or (or ?v_137 ?v_40) ?v_256)) (or (or ?v_127 ?v_215) ?v_109)) (or (or ?v_57 ?v_83) ?v_69)) (or (or ?v_72 ?v_8) ?v_173)) (or (or ?v_213 ?v_23) ?v_164)) (or (or ?v_19 P33) ?v_39)) (or (or ?v_66 ?v_95) ?v_111)) (or (or ?v_204 ?v_106) ?v_78)) (or (or ?v_251 ?v_171) ?v_176)) (or (or ?v_205 P24) ?v_186)) (or (or ?v_148 ?v_63) ?v_249)) (or (or ?v_56 ?v_119) ?v_10)) (or (or ?v_137 ?v_230) P21)) (or (or ?v_45 P43) ?v_51)) (or (or ?v_223 ?v_258) ?v_97)) (or (or ?v_168 ?v_175) ?v_38)) (or (or ?v_247 ?v_129) ?v_243)) (or (or P18 P9) ?v_136)) (or (or ?v_120 ?v_86) ?v_206)) (or (or ?v_238 P15) ?v_65)) (or (or ?v_146 ?v_82) ?v_192)) (or (or ?v_170 ?v_86) ?v_44)) (or (or ?v_118 ?v_106) P20)) (or (or ?v_156 ?v_183) P14)) (or (or P11 ?v_237) ?v_140)) (or (or P36 ?v_81) ?v_121)) (or (or ?v_148 ?v_243) ?v_72)) (or (or ?v_138 P38) P47)) (or (or ?v_170 ?v_238) P17)) (or (or ?v_187 ?v_247) ?v_72)) (or (or ?v_162 P22) ?v_100)) (or (or ?v_188 P35) ?v_154)) (or (or ?v_66 ?v_104) ?v_135)) (or (or ?v_103 ?v_123) ?v_260)) (or (or ?v_82 ?v_122) ?v_115)) (or (or P45 ?v_122) ?v_46)) (or (or ?v_113 ?v_191) ?v_41)) (or (or P7 ?v_243) ?v_94)) (or (or P28 ?v_154) ?v_223)) (or (or ?v_208 ?v_152) ?v_138)) (or (or ?v_63 ?v_194) ?v_211)) (or (or ?v_34 ?v_177) ?v_190)) (or (or ?v_246 P20) ?v_237)) (or (or P42 ?v_72) ?v_3)) (or (or ?v_5 ?v_166) ?v_224)) (or (or ?v_158 ?v_32) ?v_10)) (or (or P20 ?v_114) ?v_11)) (or (or ?v_86 P7) ?v_59)) (or (or P26 P30) P12)) (or (or P34 ?v_108) ?v_18)) (or (or ?v_103 ?v_165) P48)) (or (or ?v_40 ?v_253) P28)) (or (or ?v_115 ?v_127) ?v_48)) (or (or ?v_226 ?v_207) P45)) (or (or ?v_106 P39) ?v_241)) (or (or ?v_97 ?v_88) P5)) (or (or ?v_228 ?v_16) ?v_220)) (or (or ?v_134 ?v_63) ?v_145)) (or (or P34 ?v_218) ?v_172)) (or (or ?v_114 ?v_260) ?v_74)) (or (or ?v_49 ?v_147) P25)) (or (or ?v_119 ?v_179) ?v_138)) (or (or ?v_107 ?v_176) ?v_128)) (or (or ?v_218 ?v_21) ?v_226)) (or (or ?v_32 ?v_251) P43)) (or (or ?v_32 ?v_11) ?v_132)) (or (or ?v_67 ?v_19) P9)) (or (or ?v_146 ?v_106) ?v_81)) (or (or ?v_211 P45) ?v_73)) (or (or ?v_29 P14) ?v_254)) (or (or ?v_102 ?v_119) ?v_30)) (or (or ?v_160 ?v_234) ?v_245)) (or (or ?v_218 ?v_54) ?v_261)) (or (or P24 ?v_229) ?v_204)) (or (or ?v_208 P25) ?v_4)) (or (or ?v_123 ?v_95) ?v_82)) (or (or ?v_158 ?v_67) ?v_41)) (or (or ?v_152 ?v_235) P37)) (or (or ?v_127 ?v_149) ?v_215)) (or (or ?v_9 ?v_186) ?v_15)) (or (or P30 ?v_60) ?v_110)) (or (or ?v_164 ?v_141) ?v_205)) (or (or ?v_22 ?v_116) ?v_94)) (or (or ?v_74 ?v_5) ?v_27)) (or (or ?v_167 P37) P25)) (or (or ?v_70 ?v_215) P11)) (or (or P49 ?v_238) ?v_173)) (or (or ?v_140 ?v_133) ?v_49)) (or (or ?v_169 P44) ?v_250)) (or (or ?v_142 P1) ?v_94)) (or (or P45 ?v_241) ?v_139)) (or (or ?v_219 P21) ?v_132))))))))))))))))))))))))))))))))))))))))
(check-sat)
(exit)
